p tw 85 1331
0 1
0 2
0 3
0 4
0 5
0 6
0 7
0 8
0 9
0 10
0 11
0 21
0 26
0 36
0 62
0 68
0 71
0 78
0 41
0 45
0 46
0 52
0 56
0 66
0 83
0 17
0 19
0 24
0 32
0 34
0 40
1 2
1 3
1 4
1 5
1 6
1 7
1 8
1 9
1 10
1 12
1 21
1 39
1 40
1 48
1 55
1 79
1 26
1 32
1 35
1 50
1 56
1 66
1 78
1 82
1 84
2 3
2 4
2 5
2 6
2 7
2 8
2 9
2 10
2 14
2 20
2 21
2 22
2 23
2 24
2 25
2 26
2 37
2 39
2 40
2 41
2 42
2 13
2 18
2 47
2 50
2 59
2 60
2 61
2 11
2 33
2 38
2 65
2 67
2 68
2 19
2 29
2 36
2 56
2 58
2 63
2 72
2 82
2 16
2 30
2 55
2 79
3 4
3 5
3 6
3 7
3 8
3 9
3 10
3 19
3 38
3 40
3 41
3 42
3 61
3 69
3 76
3 77
3 11
3 21
3 26
3 36
3 62
3 68
3 71
3 78
3 12
3 39
3 48
3 55
3 79
3 15
3 18
3 32
3 33
3 70
3 37
3 49
3 51
3 83
4 5
4 6
4 7
4 8
4 9
4 10
4 11
4 12
4 13
4 14
4 15
4 16
4 17
4 18
4 19
4 22
4 30
4 43
4 44
4 45
4 46
4 47
4 48
4 33
4 38
4 39
4 65
4 67
4 68
4 41
4 52
4 56
4 66
4 83
4 23
4 27
4 53
4 71
4 78
5 6
5 7
5 8
5 9
5 10
5 14
5 20
5 21
5 22
5 23
5 24
5 25
5 26
5 37
5 39
5 40
5 41
5 42
5 13
5 18
5 47
5 50
5 59
5 60
5 61
5 11
5 36
5 62
5 68
5 71
5 78
5 16
5 19
5 34
5 63
5 72
5 74
5 79
5 48
5 51
5 56
5 57
5 28
5 31
5 76
5 81
6 7
6 8
6 9
6 10
6 29
6 30
6 35
6 36
6 37
6 38
6 21
6 40
6 48
6 53
6 54
6 55
6 56
6 57
6 58
6 11
6 33
6 39
6 65
6 67
6 68
6 23
6 46
6 47
6 69
6 70
6 71
6 19
6 42
6 63
6 82
6 15
6 49
6 51
6 79
6 83
7 8
7 9
7 10
7 29
7 30
7 35
7 36
7 37
7 38
7 11
7 32
7 40
7 51
7 52
7 53
7 64
7 69
7 74
7 16
7 19
7 34
7 60
7 63
7 72
7 79
7 13
7 21
7 55
8 9
8 10
8 29
8 30
8 35
8 36
8 37
8 38
8 21
8 40
8 48
8 53
8 54
8 55
8 56
8 57
8 58
8 18
8 28
8 46
8 63
8 64
8 65
8 66
8 11
8 33
8 39
8 67
8 68
8 19
8 31
8 47
8 50
8 71
8 76
8 81
8 13
8 16
8 79
9 10
9 11
9 20
9 26
9 28
9 29
9 57
9 58
9 62
9 63
9 23
9 39
9 40
9 46
9 47
9 69
9 70
9 71
9 19
9 38
9 41
9 42
9 61
9 76
9 77
9 12
9 21
9 48
9 55
9 79
9 15
9 18
9 32
9 33
9 36
9 68
10 22
10 23
10 37
10 39
10 40
10 41
10 42
10 13
10 18
10 47
10 50
10 59
10 60
10 61
10 11
10 20
10 26
10 28
10 29
10 57
10 58
10 62
10 63
10 12
10 21
10 48
10 55
10 79
11 12
11 13
11 14
11 15
11 16
11 17
11 18
11 19
11 23
11 27
11 28
11 29
11 30
11 31
11 32
11 33
11 34
11 20
11 26
11 57
11 58
11 62
11 63
11 38
11 39
11 65
11 67
11 68
11 40
11 51
11 52
11 53
11 64
11 69
11 74
11 21
11 36
11 71
11 78
11 48
11 56
11 24
12 13
12 14
12 15
12 16
12 17
12 18
12 19
12 20
12 23
12 32
12 33
12 34
12 46
12 56
12 58
12 75
12 21
12 39
12 40
12 48
12 55
12 79
13 14
13 15
13 16
13 17
13 18
13 19
13 37
13 47
13 50
13 59
13 60
13 61
13 20
13 26
13 34
13 48
13 51
13 56
13 57
13 29
13 32
13 36
13 43
13 44
13 64
13 69
13 70
13 72
13 21
13 30
13 55
13 63
13 79
14 15
14 16
14 17
14 18
14 19
14 20
14 21
14 22
14 23
14 24
14 25
14 26
14 32
14 33
14 34
14 46
14 56
14 58
14 75
15 16
15 17
15 18
15 19
15 23
15 27
15 28
15 29
15 30
15 31
15 32
15 33
15 34
15 36
15 43
15 44
15 64
15 69
15 70
15 72
15 40
15 61
15 68
15 37
15 49
15 51
15 79
15 83
16 17
16 18
16 19
16 34
16 40
16 60
16 63
16 72
16 74
16 79
16 21
16 30
16 55
17 18
17 19
17 29
17 34
17 36
17 53
17 58
17 62
17 67
17 72
17 73
17 74
17 24
17 32
17 40
17 56
18 19
18 37
18 47
18 50
18 59
18 60
18 61
18 28
18 46
18 58
18 63
18 64
18 65
18 66
18 23
18 27
18 43
18 53
18 56
18 71
18 78
18 32
18 33
18 36
18 40
18 68
18 70
19 38
19 40
19 41
19 42
19 61
19 69
19 76
19 77
19 34
19 60
19 63
19 72
19 74
19 79
19 28
19 31
19 47
19 50
19 57
19 71
19 81
19 29
19 36
19 56
19 58
19 59
19 67
19 82
19 39
19 65
19 21
19 30
19 55
19 24
19 32
19 62
20 21
20 22
20 23
20 24
20 25
20 26
20 28
20 29
20 57
20 58
20 62
20 63
20 32
20 33
20 34
20 46
20 56
20 75
20 48
20 51
21 22
21 23
21 24
21 25
21 26
21 40
21 48
21 53
21 54
21 55
21 56
21 57
21 58
21 36
21 62
21 68
21 71
21 78
21 39
21 79
21 30
21 63
22 23
22 24
22 25
22 26
22 37
22 39
22 40
22 41
22 42
22 30
22 43
22 44
22 45
22 46
22 47
22 48
23 24
23 25
23 26
23 27
23 28
23 29
23 30
23 31
23 32
23 33
23 34
23 37
23 39
23 40
23 41
23 42
23 46
23 47
23 69
23 70
23 71
23 56
23 58
23 75
23 43
23 53
23 65
23 78
24 25
24 26
24 28
24 31
24 32
24 37
24 41
24 49
24 50
24 51
24 52
24 34
24 40
24 56
24 62
25 26
26 28
26 31
26 32
26 37
26 41
26 49
26 50
26 51
26 52
26 29
26 57
26 58
26 62
26 63
26 36
26 68
26 71
26 78
26 34
26 48
26 56
26 35
26 66
26 82
26 84
27 28
27 29
27 30
27 31
27 32
27 33
27 34
27 40
27 48
27 54
27 60
27 62
27 64
27 80
27 43
27 46
27 53
27 56
27 65
27 71
27 78
28 29
28 30
28 31
28 32
28 33
28 34
28 37
28 41
28 49
28 50
28 51
28 52
28 57
28 58
28 62
28 63
28 46
28 64
28 65
28 66
28 47
28 71
28 76
28 81
29 30
29 31
29 32
29 33
29 34
29 35
29 36
29 37
29 38
29 57
29 58
29 62
29 63
29 53
29 67
29 72
29 73
29 74
29 56
29 59
29 82
29 39
29 42
29 65
29 43
29 44
29 64
29 69
29 70
30 31
30 32
30 33
30 34
30 35
30 36
30 37
30 38
30 43
30 44
30 45
30 46
30 47
30 48
30 40
30 54
30 60
30 62
30 64
30 80
30 55
30 63
30 79
31 32
31 33
31 34
31 37
31 41
31 49
31 50
31 51
31 52
31 40
31 48
31 54
31 60
31 62
31 64
31 80
31 47
31 57
31 71
31 76
31 81
32 33
32 34
32 37
32 41
32 49
32 50
32 51
32 52
32 46
32 56
32 58
32 75
32 40
32 53
32 64
32 69
32 74
32 36
32 43
32 44
32 70
32 72
32 35
32 66
32 78
32 82
32 84
32 61
32 68
32 62
33 34
33 38
33 39
33 65
33 67
33 68
33 46
33 56
33 58
33 75
33 40
33 48
33 54
33 60
33 62
33 64
33 80
33 36
33 61
33 70
34 36
34 53
34 58
34 62
34 67
34 72
34 73
34 74
34 46
34 56
34 75
34 40
34 60
34 63
34 79
34 48
34 51
34 57
35 36
35 37
35 38
35 50
35 56
35 66
35 78
35 82
35 84
36 37
36 38
36 53
36 58
36 62
36 67
36 72
36 73
36 74
36 68
36 71
36 78
36 56
36 59
36 63
36 82
36 43
36 44
36 64
36 69
36 70
36 40
36 61
36 49
36 51
36 79
36 83
37 38
37 39
37 40
37 41
37 42
37 49
37 50
37 51
37 52
37 47
37 59
37 60
37 61
37 79
37 83
38 39
38 65
38 67
38 68
38 40
38 41
38 42
38 61
38 69
38 76
38 77
38 63
38 82
39 40
39 41
39 42
39 65
39 67
39 68
39 46
39 47
39 69
39 70
39 71
39 48
39 55
39 79
39 63
39 82
40 41
40 42
40 48
40 53
40 54
40 55
40 56
40 57
40 58
40 46
40 47
40 69
40 70
40 71
40 61
40 76
40 77
40 51
40 52
40 64
40 74
40 60
40 63
40 72
40 79
40 62
40 80
40 68
41 42
41 49
41 50
41 51
41 52
41 61
41 69
41 76
41 77
41 45
41 46
41 56
41 66
41 68
41 83
42 61
42 69
42 76
42 77
42 63
42 65
42 67
42 82
43 44
43 45
43 46
43 47
43 48
43 64
43 69
43 70
43 72
43 53
43 56
43 65
43 71
43 78
44 45
44 46
44 47
44 48
44 64
44 69
44 70
44 72
45 46
45 47
45 48
45 52
45 56
45 66
45 68
45 83
46 47
46 48
46 58
46 63
46 64
46 65
46 66
46 69
46 70
46 71
46 56
46 75
46 52
46 68
46 83
46 53
46 78
47 48
47 50
47 59
47 60
47 61
47 69
47 70
47 71
47 57
47 76
47 81
48 53
48 54
48 55
48 56
48 57
48 58
48 60
48 62
48 64
48 80
48 79
48 51
49 50
49 51
49 52
49 79
49 83
50 51
50 52
50 59
50 60
50 61
50 57
50 71
50 76
50 81
50 56
50 66
50 78
50 82
50 84
51 52
51 53
51 64
51 69
51 74
51 56
51 57
51 79
51 83
52 53
52 64
52 69
52 74
52 56
52 66
52 68
52 83
53 54
53 55
53 56
53 57
53 58
53 62
53 67
53 72
53 73
53 74
53 64
53 69
53 65
53 71
53 78
54 55
54 56
54 57
54 58
54 60
54 62
54 64
54 80
55 56
55 57
55 58
55 79
55 63
56 57
56 58
56 75
56 59
56 63
56 67
56 72
56 82
56 66
56 68
56 83
56 78
56 84
56 65
56 71
56 62
57 58
57 62
57 63
57 71
57 76
57 81
58 62
58 63
58 64
58 65
58 66
58 67
58 72
58 73
58 74
58 75
58 59
58 82
59 60
59 61
59 63
59 67
59 72
59 82
60 61
60 63
60 72
60 74
60 79
60 62
60 64
60 80
61 69
61 76
61 77
61 68
61 70
62 63
62 67
62 72
62 73
62 74
62 68
62 71
62 78
62 64
62 80
63 64
63 65
63 66
63 72
63 74
63 79
63 67
63 82
64 65
64 66
64 69
64 74
64 80
64 70
64 72
65 66
65 67
65 68
65 82
65 71
65 78
66 68
66 83
66 78
66 82
66 84
67 68
67 72
67 73
67 74
67 82
68 71
68 78
68 83
68 70
69 70
69 71
69 76
69 77
69 74
69 72
70 71
70 72
71 78
71 76
71 81
72 73
72 74
72 79
72 82
73 74
74 79
76 77
76 81
78 82
78 84
79 83
82 84
